cost: 1118.68
Route 1:           0    4   45   29    5   37   20   70   60   71   69   36   47   48    0
Route 2:           0    6   33   73    1   43   42   64   41   56   23   63   16    0
Route 3:           0    7   35   14   59   66   65   31   55   25   50   18   24   49    0
Route 4:           0   17   40   39    9   32   44    3   51    0
Route 5:           0   26   53   11   38   10   58   72   12    0
Route 6:           0   67   34   46    8   19   54   13   57   15   27   52    0
Route 7:           0   75   68    2   62   22   28   61   21   74   30    0
